; benchmark generated from python API
(set-info :status unknown)
(declare-fun |im(z63)| () Real)
(declare-fun |im(z62)| () Real)
(declare-fun |im(z61)| () Real)
(declare-fun |im(z60)| () Real)
(declare-fun |im(z59)| () Real)
(declare-fun |im(z58)| () Real)
(declare-fun |im(z57)| () Real)
(declare-fun |im(z56)| () Real)
(declare-fun |im(z55)| () Real)
(declare-fun |im(z54)| () Real)
(declare-fun |im(z53)| () Real)
(declare-fun |im(z52)| () Real)
(declare-fun |im(z51)| () Real)
(declare-fun |im(z50)| () Real)
(declare-fun |im(z49)| () Real)
(declare-fun |im(z48)| () Real)
(declare-fun |im(z47)| () Real)
(declare-fun |im(z46)| () Real)
(declare-fun |im(z45)| () Real)
(declare-fun |im(z44)| () Real)
(declare-fun |im(z43)| () Real)
(declare-fun |im(z42)| () Real)
(declare-fun |im(z41)| () Real)
(declare-fun |im(z40)| () Real)
(declare-fun |im(z39)| () Real)
(declare-fun |im(z38)| () Real)
(declare-fun |im(z37)| () Real)
(declare-fun |im(z36)| () Real)
(declare-fun |im(z35)| () Real)
(declare-fun |im(z34)| () Real)
(declare-fun |im(z33)| () Real)
(declare-fun |im(z32)| () Real)
(declare-fun |im(z31)| () Real)
(declare-fun |im(z30)| () Real)
(declare-fun |im(z29)| () Real)
(declare-fun |im(z28)| () Real)
(declare-fun |im(z27)| () Real)
(declare-fun |im(z26)| () Real)
(declare-fun |im(z25)| () Real)
(declare-fun |im(z24)| () Real)
(declare-fun |im(z23)| () Real)
(declare-fun |im(z22)| () Real)
(declare-fun |im(z21)| () Real)
(declare-fun |im(z20)| () Real)
(declare-fun |im(z19)| () Real)
(declare-fun |im(z18)| () Real)
(declare-fun |im(z17)| () Real)
(declare-fun |im(z16)| () Real)
(declare-fun |im(z15)| () Real)
(declare-fun |im(z14)| () Real)
(declare-fun |im(z13)| () Real)
(declare-fun |im(z12)| () Real)
(declare-fun |im(z11)| () Real)
(declare-fun |im(z10)| () Real)
(declare-fun |im(z9)| () Real)
(declare-fun |im(z8)| () Real)
(declare-fun |im(z7)| () Real)
(declare-fun |im(z6)| () Real)
(declare-fun |im(z5)| () Real)
(declare-fun |im(z4)| () Real)
(declare-fun |im(z3)| () Real)
(declare-fun |im(z2)| () Real)
(declare-fun |im(z1)| () Real)
(declare-fun |im(z0)| () Real)
(declare-fun |re(z63)| () Real)
(declare-fun |re(z62)| () Real)
(declare-fun |re(z61)| () Real)
(declare-fun |re(z60)| () Real)
(declare-fun |re(z59)| () Real)
(declare-fun |re(z58)| () Real)
(declare-fun |re(z57)| () Real)
(declare-fun |re(z56)| () Real)
(declare-fun |re(z55)| () Real)
(declare-fun |re(z54)| () Real)
(declare-fun |re(z53)| () Real)
(declare-fun |re(z52)| () Real)
(declare-fun |re(z51)| () Real)
(declare-fun |re(z50)| () Real)
(declare-fun |re(z49)| () Real)
(declare-fun |re(z48)| () Real)
(declare-fun |re(z47)| () Real)
(declare-fun |re(z46)| () Real)
(declare-fun |re(z45)| () Real)
(declare-fun |re(z44)| () Real)
(declare-fun |re(z43)| () Real)
(declare-fun |re(z42)| () Real)
(declare-fun |re(z41)| () Real)
(declare-fun |re(z40)| () Real)
(declare-fun |re(z39)| () Real)
(declare-fun |re(z38)| () Real)
(declare-fun |re(z37)| () Real)
(declare-fun |re(z36)| () Real)
(declare-fun |re(z35)| () Real)
(declare-fun |re(z34)| () Real)
(declare-fun |re(z33)| () Real)
(declare-fun |re(z32)| () Real)
(declare-fun |re(z31)| () Real)
(declare-fun |re(z30)| () Real)
(declare-fun |re(z29)| () Real)
(declare-fun |re(z28)| () Real)
(declare-fun |re(z27)| () Real)
(declare-fun |re(z26)| () Real)
(declare-fun |re(z25)| () Real)
(declare-fun |re(z24)| () Real)
(declare-fun |re(z23)| () Real)
(declare-fun |re(z22)| () Real)
(declare-fun |re(z21)| () Real)
(declare-fun |re(z20)| () Real)
(declare-fun |re(z19)| () Real)
(declare-fun |re(z18)| () Real)
(declare-fun |re(z17)| () Real)
(declare-fun |re(z16)| () Real)
(declare-fun |re(z15)| () Real)
(declare-fun |re(z14)| () Real)
(declare-fun |re(z13)| () Real)
(declare-fun |re(z12)| () Real)
(declare-fun |re(z11)| () Real)
(declare-fun |re(z10)| () Real)
(declare-fun |re(z9)| () Real)
(declare-fun |re(z8)| () Real)
(declare-fun |re(z7)| () Real)
(declare-fun |re(z6)| () Real)
(declare-fun |re(z5)| () Real)
(declare-fun |re(z4)| () Real)
(declare-fun |re(z3)| () Real)
(declare-fun |re(z2)| () Real)
(declare-fun |re(z1)| () Real)
(declare-fun |re(z0)| () Real)
(assert
 (let ((?x199 (^ |im(z1)| 2.0)))
 (let ((?x198 (^ |im(z0)| 2.0)))
 (let ((?x135 (^ |re(z1)| 2.0)))
 (let ((?x134 (^ |re(z0)| 2.0)))
 (let ((?x262 (+ ?x134 ?x135 (^ |re(z2)| 2.0) (^ |re(z3)| 2.0) (^ |re(z4)| 2.0) (^ |re(z5)| 2.0) (^ |re(z6)| 2.0) (^ |re(z7)| 2.0) (^ |re(z8)| 2.0) (^ |re(z9)| 2.0) (^ |re(z10)| 2.0) (^ |re(z11)| 2.0) (^ |re(z12)| 2.0) (^ |re(z13)| 2.0) (^ |re(z14)| 2.0) (^ |re(z15)| 2.0) (^ |re(z16)| 2.0) (^ |re(z17)| 2.0) (^ |re(z18)| 2.0) (^ |re(z19)| 2.0) (^ |re(z20)| 2.0) (^ |re(z21)| 2.0) (^ |re(z22)| 2.0) (^ |re(z23)| 2.0) (^ |re(z24)| 2.0) (^ |re(z25)| 2.0) (^ |re(z26)| 2.0) (^ |re(z27)| 2.0) (^ |re(z28)| 2.0) (^ |re(z29)| 2.0) (^ |re(z30)| 2.0) (^ |re(z31)| 2.0) (^ |re(z32)| 2.0) (^ |re(z33)| 2.0) (^ |re(z34)| 2.0) (^ |re(z35)| 2.0) (^ |re(z36)| 2.0) (^ |re(z37)| 2.0) (^ |re(z38)| 2.0) (^ |re(z39)| 2.0) (^ |re(z40)| 2.0) (^ |re(z41)| 2.0) (^ |re(z42)| 2.0) (^ |re(z43)| 2.0) (^ |re(z44)| 2.0) (^ |re(z45)| 2.0) (^ |re(z46)| 2.0) (^ |re(z47)| 2.0) (^ |re(z48)| 2.0) (^ |re(z49)| 2.0) (^ |re(z50)| 2.0) (^ |re(z51)| 2.0) (^ |re(z52)| 2.0) (^ |re(z53)| 2.0) (^ |re(z54)| 2.0) (^ |re(z55)| 2.0) (^ |re(z56)| 2.0) (^ |re(z57)| 2.0) (^ |re(z58)| 2.0) (^ |re(z59)| 2.0) (^ |re(z60)| 2.0) (^ |re(z61)| 2.0) (^ |re(z62)| 2.0) (^ |re(z63)| 2.0) ?x198 ?x199 (^ |im(z2)| 2.0) (^ |im(z3)| 2.0) (^ |im(z4)| 2.0) (^ |im(z5)| 2.0) (^ |im(z6)| 2.0) (^ |im(z7)| 2.0) (^ |im(z8)| 2.0) (^ |im(z9)| 2.0) (^ |im(z10)| 2.0) (^ |im(z11)| 2.0) (^ |im(z12)| 2.0) (^ |im(z13)| 2.0) (^ |im(z14)| 2.0) (^ |im(z15)| 2.0) (^ |im(z16)| 2.0) (^ |im(z17)| 2.0) (^ |im(z18)| 2.0) (^ |im(z19)| 2.0) (^ |im(z20)| 2.0) (^ |im(z21)| 2.0) (^ |im(z22)| 2.0) (^ |im(z23)| 2.0) (^ |im(z24)| 2.0) (^ |im(z25)| 2.0) (^ |im(z26)| 2.0) (^ |im(z27)| 2.0) (^ |im(z28)| 2.0) (^ |im(z29)| 2.0) (^ |im(z30)| 2.0) (^ |im(z31)| 2.0) (^ |im(z32)| 2.0) (^ |im(z33)| 2.0) (^ |im(z34)| 2.0) (^ |im(z35)| 2.0) (^ |im(z36)| 2.0) (^ |im(z37)| 2.0) (^ |im(z38)| 2.0) (^ |im(z39)| 2.0) (^ |im(z40)| 2.0) (^ |im(z41)| 2.0) (^ |im(z42)| 2.0) (^ |im(z43)| 2.0) (^ |im(z44)| 2.0) (^ |im(z45)| 2.0) (^ |im(z46)| 2.0) (^ |im(z47)| 2.0) (^ |im(z48)| 2.0) (^ |im(z49)| 2.0) (^ |im(z50)| 2.0) (^ |im(z51)| 2.0) (^ |im(z52)| 2.0) (^ |im(z53)| 2.0) (^ |im(z54)| 2.0) (^ |im(z55)| 2.0) (^ |im(z56)| 2.0) (^ |im(z57)| 2.0) (^ |im(z58)| 2.0) (^ |im(z59)| 2.0) (^ |im(z60)| 2.0) (^ |im(z61)| 2.0) (^ |im(z62)| 2.0) (^ |im(z63)| 2.0))))
 (= ?x262 1.0)))))))
(assert
 (let ((?x134 (^ |re(z0)| 2.0)))
 (let ((?x269 (* (/ 731139063625053.0 5000000000000.0) ?x134)))
 (let ((?x270 (+ (+ (- (/ 9534809746369477.0 200000000000000.0)) (* (/ 731139063625053.0 5000000000000.0) (^ |im(z0)| 2.0))) ?x269)))
 (<= ?x270 (/ 4998999999972389.0 1000000000000000.0))))))
(assert
 (let ((?x198 (^ |im(z0)| 2.0)))
 (let ((?x134 (^ |re(z0)| 2.0)))
 (let ((?x305 (+ ?x134 ?x198)))
 (let ((?x310 (+ 0.0 ?x305)))
 (>= ?x310 (/ 1.0 2.0)))))))
(assert
 (let ((?x198 (^ |im(z0)| 2.0)))
(let ((?x134 (^ |re(z0)| 2.0)))
(let ((?x305 (+ ?x134 ?x198)))
(let ((?x310 (+ 0.0 ?x305)))
(<= ?x310 1.0))))))
(check-sat)
